outputs/case_407.model.txt
central_authority_dispatch = True
bank_report_requested = True
audit_fee_paid = False
specialist_assigned = False
specialist_report_submitted = False
customer_data_backup_in_domestic = False
cloud_service_policy_defined = False
cloud_service_supervision_implemented = False
cloud_service_third_party_audit_done = False
cloud_service_data_encrypted = False
data_ownership_retained = False
data_access_limited = False
local_authority_dispatch = False
data_location_rights = False
foreign_data_protection_not_lower_than_domestic = False
customer_data_stored_domestically = False
foreign_storage_approved = False
internal_control_system_established = True
late_report = False
internal_handling_system_established = True
internal_handling_system_executed = True
no_answer_or_false_answer = False
audit_fee_not_paid = False
internal_operation_system_executed = True
hide_or_destroy_documents = False
false_or_incomplete_report = False
refuse_inspection = False
internal_control_system_executed = True
internal_operation_system_established = True
internal_operation_executed = True
internal_handling_established = True
derivative_operation_system_established = False
derivative_operation_established = False
violation_internal_operation = False
cloud_service_data_protection = False
specialist_audit_assigned = False
violation_internal_control_or_handling_or_operation = False
inspection_violation_any = False
inspection_violation_no_answer = False
penalty = False
cloud_service_data_ownership = False
cloud_service_third_party_audit = False
cloud_service_supervision = False
internal_control_executed = True
inspection_violation_late_or_false_report = False
cloud_service_policy_established = False
inspection_violation_hide_destroy = False
violation_internal_control = False
internal_handling_executed = True
central_authority_delegate = False
inspection_authority = True
internal_operation_established = True
internal_control_established = True
violation_internal_handling = False
inspection_violation_refuse_inspect = False
cloud_service_data_location_compliance = False